33D32945 STP File, STP Format Version 1.0

SECTION Comment
Name "i640-205-PCST"
Creator "Indaco Biazzo" 
Remark "derived from Incidence graph by Cees Duin"
END

SECTION Graph
Nodes 640
Edges 960
E 1 119 201.000000
E 1 131 200.000000
E 1 315 200.000000
E 1 361 207.000000
E 1 621 195.000000
E 2 412 189.000000
E 2 589 197.000000
E 3 383 199.000000
E 3 441 194.000000
E 3 512 203.000000
E 4 358 200.000000
E 4 416 199.000000
E 4 536 195.000000
E 4 546 196.000000
E 5 103 204.000000
E 5 286 202.000000
E 5 397 200.000000
E 6 332 205.000000
E 6 450 205.000000
E 6 499 200.000000
E 7 481 197.000000
E 7 544 199.000000
E 8 86 195.000000
E 8 225 195.000000
E 8 326 205.000000
E 8 461 199.000000
E 9 131 200.000000
E 9 157 209.000000
E 9 302 197.000000
E 9 411 199.000000
E 9 508 192.000000
E 9 571 208.000000
E 10 266 199.000000
E 10 345 202.000000
E 10 516 197.000000
E 11 276 194.000000
E 12 160 206.000000
E 12 210 198.000000
E 12 368 204.000000
E 13 65 198.000000
E 13 448 199.000000
E 13 479 195.000000
E 13 634 201.000000
E 14 84 198.000000
E 14 188 205.000000
E 14 297 198.000000
E 14 311 194.000000
E 14 385 197.000000
E 14 416 204.000000
E 14 463 200.000000
E 14 570 200.000000
E 15 301 209.000000
E 15 583 202.000000
E 15 613 197.000000
E 15 617 197.000000
E 16 73 203.000000
E 17 370 207.000000
E 17 498 191.000000
E 18 40 298.000000
E 18 41 300.000000
E 18 283 196.000000
E 19 38 304.000000
E 19 181 193.000000
E 19 234 199.000000
E 19 366 206.000000
E 19 414 202.000000
E 20 30 305.000000
E 20 631 199.000000
E 21 273 194.000000
E 21 537 201.000000
E 22 39 307.000000
E 22 101 203.000000
E 22 209 201.000000
E 22 599 204.000000
E 22 618 200.000000
E 22 631 207.000000
E 23 107 197.000000
E 23 222 200.000000
E 24 109 197.000000
E 24 374 203.000000
E 24 402 196.000000
E 24 538 204.000000
E 25 196 203.000000
E 25 399 195.000000
E 25 613 200.000000
E 26 161 194.000000
E 26 260 207.000000
E 26 325 201.000000
E 27 250 195.000000
E 28 135 200.000000
E 28 262 198.000000
E 28 372 197.000000
E 28 530 203.000000
E 28 536 200.000000
E 28 569 193.000000
E 28 598 199.000000
E 29 471 211.000000
E 30 520 199.000000
E 30 580 200.000000
E 31 455 206.000000
E 32 276 202.000000
E 32 412 202.000000
E 32 495 196.000000
E 32 572 197.000000
E 33 189 204.000000
E 33 577 197.000000
E 34 62 196.000000
E 34 87 194.000000
E 34 111 202.000000
E 34 240 208.000000
E 34 285 189.000000
E 34 315 206.000000
E 34 579 206.000000
E 34 632 208.000000
E 35 269 202.000000
E 35 364 204.000000
E 35 565 206.000000
E 35 621 207.000000
E 36 82 200.000000
E 37 530 197.000000
E 37 550 201.000000
E 37 584 205.000000
E 38 501 200.000000
E 39 512 198.000000
E 41 127 197.000000
E 41 129 200.000000
E 41 207 197.000000
E 41 569 201.000000
E 42 321 191.000000
E 42 400 200.000000
E 43 78 200.000000
E 43 153 203.000000
E 44 45 300.000000
E 44 429 201.000000
E 44 515 192.000000
E 45 478 206.000000
E 45 528 202.000000
E 45 539 196.000000
E 46 157 196.000000
E 47 362 191.000000
E 47 515 205.000000
E 48 252 209.000000
E 48 505 206.000000
E 48 518 193.000000
E 49 363 204.000000
E 50 68 202.000000
E 50 360 194.000000
E 51 371 96.000000
E 51 443 108.000000
E 52 599 107.000000
E 53 285 97.000000
E 53 488 97.000000
E 53 501 97.000000
E 53 546 98.000000
E 54 231 97.000000
E 54 399 101.000000
E 54 478 92.000000
E 55 103 97.000000
E 55 118 100.000000
E 55 298 106.000000
E 56 247 100.000000
E 56 452 106.000000
E 57 110 99.000000
E 57 425 96.000000
E 58 130 94.000000
E 58 193 103.000000
E 58 288 105.000000
E 59 96 104.000000
E 59 116 92.000000
E 59 411 99.000000
E 59 499 108.000000
E 60 370 104.000000
E 60 580 104.000000
E 60 594 99.000000
E 61 94 104.000000
E 61 219 89.000000
E 61 252 86.000000
E 61 635 97.000000
E 62 150 98.000000
E 62 393 107.000000
E 63 154 97.000000
E 63 508 96.000000
E 64 214 101.000000
E 64 494 101.000000
E 65 98 97.000000
E 65 545 105.000000
E 66 608 106.000000
E 67 88 98.000000
E 67 243 97.000000
E 68 70 88.000000
E 68 200 97.000000
E 69 541 96.000000
E 69 563 97.000000
E 69 632 101.000000
E 70 159 100.000000
E 70 219 95.000000
E 70 271 103.000000
E 70 416 85.000000
E 70 530 97.000000
E 71 582 90.000000
E 72 331 93.000000
E 73 81 95.000000
E 73 387 97.000000
E 74 310 105.000000
E 74 357 108.000000
E 74 630 99.000000
E 75 126 100.000000
E 75 485 98.000000
E 75 542 98.000000
E 75 575 103.000000
E 75 594 100.000000
E 76 309 99.000000
E 76 440 102.000000
E 77 83 101.000000
E 77 268 100.000000
E 77 503 96.000000
E 77 630 95.000000
E 78 135 96.000000
E 78 292 107.000000
E 78 308 92.000000
E 78 319 106.000000
E 78 396 95.000000
E 78 563 97.000000
E 79 156 102.000000
E 79 221 101.000000
E 79 524 94.000000
E 79 615 100.000000
E 80 140 100.000000
E 80 247 101.000000
E 80 282 93.000000
E 80 345 101.000000
E 80 528 94.000000
E 80 561 103.000000
E 81 142 93.000000
E 81 458 92.000000
E 82 391 100.000000
E 82 438 95.000000
E 82 542 99.000000
E 84 352 102.000000
E 84 372 100.000000
E 84 398 104.000000
E 84 544 104.000000
E 84 573 104.000000
E 85 115 96.000000
E 85 470 102.000000
E 85 554 96.000000
E 86 490 96.000000
E 86 525 103.000000
E 86 570 106.000000
E 87 276 96.000000
E 87 402 102.000000
E 87 505 98.000000
E 88 232 111.000000
E 88 479 102.000000
E 88 503 105.000000
E 88 550 105.000000
E 88 600 101.000000
E 88 620 104.000000
E 89 426 107.000000
E 90 191 92.000000
E 90 193 97.000000
E 91 369 94.000000
E 91 487 101.000000
E 91 619 98.000000
E 92 152 97.000000
E 92 426 104.000000
E 92 434 90.000000
E 92 537 101.000000
E 93 280 106.000000
E 93 473 97.000000
E 94 303 98.000000
E 94 469 100.000000
E 95 364 98.000000
E 95 557 95.000000
E 96 265 97.000000
E 96 379 102.000000
E 96 600 93.000000
E 97 134 95.000000
E 98 474 101.000000
E 99 188 96.000000
E 100 104 102.000000
E 100 114 107.000000
E 100 129 100.000000
E 100 345 101.000000
E 100 406 96.000000
E 100 468 100.000000
E 101 198 109.000000
E 102 169 94.000000
E 102 471 103.000000
E 103 485 97.000000
E 105 463 99.000000
E 106 330 98.000000
E 106 389 99.000000
E 106 458 102.000000
E 106 511 95.000000
E 107 112 97.000000
E 107 177 91.000000
E 107 262 106.000000
E 108 112 96.000000
E 108 516 98.000000
E 108 559 99.000000
E 109 426 97.000000
E 109 489 110.000000
E 109 564 105.000000
E 110 508 107.000000
E 111 146 101.000000
E 111 584 103.000000
E 112 257 101.000000
E 112 424 104.000000
E 113 599 96.000000
E 114 179 101.000000
E 115 119 108.000000
E 115 127 101.000000
E 115 388 92.000000
E 115 608 99.000000
E 116 360 106.000000
E 116 601 92.000000
E 117 377 95.000000
E 118 266 97.000000
E 118 304 92.000000
E 118 541 95.000000
E 119 214 96.000000
E 119 351 100.000000
E 119 425 105.000000
E 119 557 96.000000
E 119 610 97.000000
E 120 400 99.000000
E 121 323 105.000000
E 122 262 93.000000
E 122 293 103.000000
E 122 555 99.000000
E 123 344 96.000000
E 123 376 98.000000
E 124 234 100.000000
E 125 394 111.000000
E 125 497 100.000000
E 126 158 94.000000
E 127 217 103.000000
E 128 264 97.000000
E 128 297 99.000000
E 128 530 102.000000
E 129 160 98.000000
E 129 229 98.000000
E 129 322 91.000000
E 129 550 98.000000
E 131 482 97.000000
E 131 543 94.000000
E 131 555 106.000000
E 131 574 96.000000
E 132 226 102.000000
E 132 337 99.000000
E 132 345 102.000000
E 133 340 106.000000
E 133 437 99.000000
E 133 547 110.000000
E 134 492 101.000000
E 134 524 94.000000
E 134 536 103.000000
E 134 549 108.000000
E 134 620 112.000000
E 135 368 103.000000
E 135 541 95.000000
E 136 221 104.000000
E 136 522 101.000000
E 137 145 98.000000
E 137 180 98.000000
E 137 281 102.000000
E 137 376 100.000000
E 137 471 101.000000
E 137 570 100.000000
E 137 621 99.000000
E 138 601 98.000000
E 139 393 97.000000
E 140 204 102.000000
E 141 395 101.000000
E 141 497 102.000000
E 142 199 109.000000
E 142 289 103.000000
E 142 375 103.000000
E 142 472 101.000000
E 143 202 97.000000
E 143 376 96.000000
E 143 494 96.000000
E 144 199 92.000000
E 144 220 100.000000
E 144 301 104.000000
E 146 585 104.000000
E 147 561 99.000000
E 147 566 101.000000
E 148 526 97.000000
E 148 608 98.000000
E 149 293 100.000000
E 149 339 95.000000
E 151 219 94.000000
E 151 443 102.000000
E 152 155 96.000000
E 152 576 101.000000
E 153 172 93.000000
E 153 343 100.000000
E 154 193 100.000000
E 154 243 102.000000
E 154 475 92.000000
E 154 485 100.000000
E 155 302 95.000000
E 155 442 93.000000
E 156 272 93.000000
E 156 274 94.000000
E 156 290 94.000000
E 157 407 101.000000
E 159 175 97.000000
E 159 227 108.000000
E 159 320 97.000000
E 160 393 102.000000
E 161 619 92.000000
E 162 307 99.000000
E 162 346 102.000000
E 163 551 93.000000
E 163 561 97.000000
E 163 590 97.000000
E 164 249 98.000000
E 164 328 105.000000
E 164 361 111.000000
E 164 491 90.000000
E 165 255 97.000000
E 165 595 90.000000
E 166 230 97.000000
E 166 401 99.000000
E 166 628 103.000000
E 167 388 96.000000
E 167 535 95.000000
E 168 300 87.000000
E 168 523 108.000000
E 169 376 99.000000
E 169 401 96.000000
E 169 402 107.000000
E 170 269 99.000000
E 170 609 97.000000
E 170 640 98.000000
E 171 471 97.000000
E 172 376 101.000000
E 172 451 100.000000
E 173 289 98.000000
E 174 446 101.000000
E 175 387 101.000000
E 175 555 98.000000
E 176 335 91.000000
E 176 635 95.000000
E 178 286 102.000000
E 178 590 94.000000
E 179 486 96.000000
E 180 426 105.000000
E 180 532 96.000000
E 181 392 107.000000
E 182 400 95.000000
E 182 466 100.000000
E 182 599 100.000000
E 183 288 102.000000
E 183 386 105.000000
E 183 500 102.000000
E 183 620 95.000000
E 184 326 100.000000
E 184 594 90.000000
E 185 324 102.000000
E 186 342 100.000000
E 186 630 96.000000
E 186 635 111.000000
E 187 231 92.000000
E 189 494 99.000000
E 189 598 90.000000
E 190 214 105.000000
E 190 502 106.000000
E 191 238 102.000000
E 191 264 114.000000
E 191 432 102.000000
E 191 553 94.000000
E 192 197 95.000000
E 194 482 97.000000
E 195 299 108.000000
E 195 385 99.000000
E 195 482 104.000000
E 195 495 96.000000
E 197 206 96.000000
E 197 363 100.000000
E 197 395 97.000000
E 198 249 93.000000
E 198 285 100.000000
E 198 579 96.000000
E 199 273 100.000000
E 199 555 107.000000
E 200 210 106.000000
E 200 455 108.000000
E 200 472 102.000000
E 200 579 94.000000
E 201 226 104.000000
E 202 306 97.000000
E 203 223 92.000000
E 203 250 96.000000
E 203 273 100.000000
E 203 301 104.000000
E 203 632 102.000000
E 204 270 106.000000
E 204 372 86.000000
E 205 581 100.000000
E 205 603 101.000000
E 206 285 96.000000
E 206 503 95.000000
E 207 639 91.000000
E 208 299 100.000000
E 208 309 97.000000
E 208 421 91.000000
E 208 473 102.000000
E 209 397 101.000000
E 210 428 93.000000
E 210 476 102.000000
E 211 386 101.000000
E 211 411 96.000000
E 211 508 101.000000
E 211 509 94.000000
E 211 620 96.000000
E 212 464 98.000000
E 212 521 101.000000
E 213 257 87.000000
E 213 610 95.000000
E 215 265 101.000000
E 215 467 110.000000
E 215 560 100.000000
E 216 451 96.000000
E 217 338 109.000000
E 217 626 95.000000
E 218 468 106.000000
E 219 557 97.000000
E 220 270 109.000000
E 220 408 100.000000
E 221 327 98.000000
E 221 338 97.000000
E 222 316 101.000000
E 222 417 94.000000
E 223 404 90.000000
E 223 438 101.000000
E 223 624 95.000000
E 224 228 97.000000
E 224 283 93.000000
E 224 488 99.000000
E 225 392 94.000000
E 226 556 108.000000
E 227 379 102.000000
E 227 575 92.000000
E 229 232 100.000000
E 229 299 94.000000
E 230 378 101.000000
E 230 391 101.000000
E 231 245 107.000000
E 231 504 109.000000
E 231 567 96.000000
E 233 357 99.000000
E 233 441 90.000000
E 234 436 97.000000
E 234 462 97.000000
E 234 624 97.000000
E 235 588 100.000000
E 236 519 103.000000
E 237 351 94.000000
E 237 378 96.000000
E 237 460 103.000000
E 237 593 106.000000
E 238 352 100.000000
E 238 378 92.000000
E 239 356 93.000000
E 239 588 103.000000
E 239 615 94.000000
E 241 556 107.000000
E 242 426 98.000000
E 244 571 99.000000
E 246 520 98.000000
E 246 547 97.000000
E 247 399 94.000000
E 248 378 101.000000
E 248 409 101.000000
E 248 470 103.000000
E 249 346 102.000000
E 249 360 105.000000
E 250 323 99.000000
E 250 563 90.000000
E 251 376 98.000000
E 251 489 108.000000
E 253 547 109.000000
E 254 479 99.000000
E 254 485 94.000000
E 254 572 104.000000
E 254 574 102.000000
E 255 458 96.000000
E 255 610 103.000000
E 256 295 99.000000
E 256 357 103.000000
E 256 468 101.000000
E 257 502 100.000000
E 258 483 107.000000
E 258 550 103.000000
E 258 589 92.000000
E 259 363 105.000000
E 259 480 91.000000
E 260 494 98.000000
E 261 274 102.000000
E 263 512 107.000000
E 263 569 95.000000
E 263 620 100.000000
E 264 484 100.000000
E 264 490 99.000000
E 264 569 106.000000
E 265 617 98.000000
E 266 576 96.000000
E 267 475 111.000000
E 269 569 97.000000
E 270 411 104.000000
E 271 333 92.000000
E 271 393 104.000000
E 271 406 108.000000
E 271 479 96.000000
E 273 440 94.000000
E 273 536 101.000000
E 274 560 100.000000
E 275 376 100.000000
E 275 560 94.000000
E 276 611 102.000000
E 277 521 100.000000
E 277 526 104.000000
E 278 280 99.000000
E 278 537 105.000000
E 279 285 95.000000
E 280 340 100.000000
E 280 626 106.000000
E 281 478 111.000000
E 282 446 91.000000
E 283 438 100.000000
E 283 600 99.000000
E 284 568 105.000000
E 284 581 105.000000
E 285 290 107.000000
E 285 323 99.000000
E 285 443 96.000000
E 285 510 98.000000
E 285 614 102.000000
E 285 619 103.000000
E 286 460 96.000000
E 286 484 99.000000
E 286 588 100.000000
E 287 504 99.000000
E 288 312 95.000000
E 288 367 100.000000
E 288 534 102.000000
E 289 534 98.000000
E 290 336 103.000000
E 290 513 101.000000
E 291 351 95.000000
E 292 611 92.000000
E 292 635 102.000000
E 293 354 101.000000
E 293 448 103.000000
E 294 391 93.000000
E 294 520 92.000000
E 295 482 96.000000
E 296 315 100.000000
E 296 552 98.000000
E 296 634 105.000000
E 297 388 88.000000
E 297 424 96.000000
E 297 515 94.000000
E 297 566 110.000000
E 298 303 96.000000
E 298 333 101.000000
E 298 425 97.000000
E 299 320 96.000000
E 299 616 95.000000
E 300 611 98.000000
E 300 636 93.000000
E 301 359 88.000000
E 301 381 101.000000
E 301 555 94.000000
E 304 371 101.000000
E 304 578 103.000000
E 305 593 100.000000
E 307 315 106.000000
E 307 316 102.000000
E 307 433 97.000000
E 307 445 94.000000
E 307 540 98.000000
E 308 392 108.000000
E 309 582 101.000000
E 310 380 111.000000
E 311 319 106.000000
E 311 339 90.000000
E 312 432 100.000000
E 312 457 104.000000
E 312 559 99.000000
E 313 499 99.000000
E 314 455 106.000000
E 315 388 97.000000
E 315 430 111.000000
E 315 485 103.000000
E 315 564 98.000000
E 315 640 96.000000
E 316 589 98.000000
E 317 334 100.000000
E 317 436 95.000000
E 318 324 114.000000
E 318 461 102.000000
E 319 567 93.000000
E 321 325 100.000000
E 322 514 106.000000
E 323 427 102.000000
E 323 431 94.000000
E 323 564 89.000000
E 324 354 99.000000
E 324 625 105.000000
E 325 423 101.000000
E 325 512 91.000000
E 326 515 96.000000
E 327 349 99.000000
E 327 456 98.000000
E 327 485 93.000000
E 328 341 103.000000
E 329 348 97.000000
E 329 547 100.000000
E 331 356 99.000000
E 331 422 99.000000
E 331 487 99.000000
E 331 555 103.000000
E 332 457 100.000000
E 332 622 103.000000
E 333 464 89.000000
E 333 583 101.000000
E 334 362 105.000000
E 334 556 105.000000
E 335 496 101.000000
E 337 350 97.000000
E 337 550 99.000000
E 338 485 99.000000
E 338 630 94.000000
E 339 521 106.000000
E 339 552 104.000000
E 340 364 110.000000
E 340 555 101.000000
E 341 410 99.000000
E 344 439 96.000000
E 344 597 96.000000
E 345 386 97.000000
E 345 494 103.000000
E 345 621 99.000000
E 346 613 97.000000
E 347 484 98.000000
E 349 460 90.000000
E 350 402 97.000000
E 351 355 95.000000
E 351 575 99.000000
E 352 427 95.000000
E 353 563 95.000000
E 353 592 104.000000
E 354 454 105.000000
E 354 592 97.000000
E 354 638 96.000000
E 355 443 100.000000
E 357 446 99.000000
E 357 570 91.000000
E 360 408 104.000000
E 361 609 89.000000
E 362 395 101.000000
E 363 595 113.000000
E 364 389 102.000000
E 365 415 102.000000
E 365 522 105.000000
E 365 587 105.000000
E 365 621 100.000000
E 366 498 101.000000
E 367 372 96.000000
E 367 602 103.000000
E 369 588 97.000000
E 370 413 94.000000
E 370 530 101.000000
E 372 398 103.000000
E 373 463 105.000000
E 373 527 107.000000
E 375 520 85.000000
E 376 425 103.000000
E 376 543 92.000000
E 376 601 101.000000
E 377 547 99.000000
E 377 600 102.000000
E 379 392 98.000000
E 380 425 95.000000
E 382 612 104.000000
E 384 401 91.000000
E 384 448 103.000000
E 384 539 100.000000
E 386 576 103.000000
E 386 588 93.000000
E 386 596 102.000000
E 386 599 98.000000
E 387 436 99.000000
E 387 491 103.000000
E 387 561 95.000000
E 388 399 105.000000
E 388 435 98.000000
E 388 580 98.000000
E 389 601 99.000000
E 389 633 104.000000
E 390 513 99.000000
E 391 520 101.000000
E 391 599 98.000000
E 392 438 108.000000
E 392 450 95.000000
E 393 468 97.000000
E 393 483 101.000000
E 393 545 110.000000
E 393 621 97.000000
E 393 625 106.000000
E 393 639 97.000000
E 395 555 98.000000
E 399 429 103.000000
E 399 467 95.000000
E 399 506 97.000000
E 401 569 99.000000
E 402 529 93.000000
E 403 478 97.000000
E 403 481 95.000000
E 404 538 104.000000
E 405 432 98.000000
E 405 517 98.000000
E 407 477 106.000000
E 407 544 95.000000
E 409 471 97.000000
E 410 486 104.000000
E 411 416 104.000000
E 411 452 99.000000
E 411 460 96.000000
E 412 422 104.000000
E 414 478 98.000000
E 415 516 107.000000
E 416 448 108.000000
E 416 505 111.000000
E 416 519 98.000000
E 416 530 101.000000
E 417 421 106.000000
E 417 430 104.000000
E 417 592 101.000000
E 418 610 102.000000
E 419 545 101.000000
E 420 610 112.000000
E 421 499 101.000000
E 423 464 87.000000
E 428 467 93.000000
E 428 554 102.000000
E 429 447 93.000000
E 432 489 92.000000
E 436 517 102.000000
E 437 501 99.000000
E 437 524 103.000000
E 439 589 99.000000
E 440 498 104.000000
E 440 575 101.000000
E 440 607 95.000000
E 440 640 97.000000
E 443 628 102.000000
E 444 621 109.000000
E 445 485 101.000000
E 449 546 105.000000
E 449 571 101.000000
E 453 469 105.000000
E 455 563 108.000000
E 455 586 106.000000
E 456 618 100.000000
E 457 565 101.000000
E 459 514 106.000000
E 462 483 98.000000
E 462 620 108.000000
E 462 633 97.000000
E 463 629 100.000000
E 464 499 96.000000
E 465 607 104.000000
E 466 519 102.000000
E 468 582 91.000000
E 470 478 96.000000
E 471 483 94.000000
E 473 581 100.000000
E 474 512 109.000000
E 474 609 103.000000
E 474 640 101.000000
E 477 517 98.000000
E 481 597 90.000000
E 481 616 107.000000
E 484 555 107.000000
E 485 531 105.000000
E 485 583 91.000000
E 486 566 97.000000
E 487 576 98.000000
E 487 587 100.000000
E 488 514 106.000000
E 488 548 97.000000
E 488 586 104.000000
E 488 616 95.000000
E 489 523 97.000000
E 489 562 94.000000
E 493 505 98.000000
E 494 556 103.000000
E 494 611 102.000000
E 495 607 105.000000
E 496 617 97.000000
E 496 632 106.000000
E 497 585 96.000000
E 497 626 98.000000
E 499 551 105.000000
E 500 531 103.000000
E 502 559 102.000000
E 503 620 96.000000
E 504 598 97.000000
E 507 549 97.000000
E 507 577 114.000000
E 508 510 100.000000
E 509 558 103.000000
E 513 602 96.000000
E 515 517 92.000000
E 516 572 95.000000
E 517 533 98.000000
E 517 588 111.000000
E 518 585 112.000000
E 519 554 96.000000
E 520 534 106.000000
E 522 525 89.000000
E 522 617 100.000000
E 524 613 95.000000
E 529 539 102.000000
E 531 605 105.000000
E 539 546 94.000000
E 540 626 103.000000
E 547 569 108.000000
E 549 570 112.000000
E 549 604 103.000000
E 549 608 99.000000
E 554 609 99.000000
E 558 588 98.000000
E 559 569 100.000000
E 568 580 100.000000
E 569 588 95.000000
E 569 602 99.000000
E 569 621 96.000000
E 571 633 104.000000
E 573 591 101.000000
E 580 627 100.000000
E 584 599 96.000000
E 585 639 99.000000
E 588 625 99.000000
E 593 632 96.000000
E 594 599 100.000000
E 603 633 101.000000
E 606 609 103.000000
E 607 612 100.000000
E 607 618 95.000000
E 609 637 96.000000
E 623 631 104.000000
E 627 629 99.000000
E 632 636 99.000000
END

SECTION Terminals
Terminals 50
TP 1 528.000000
TP 2 772.000000
TP 3 968.000000
TP 4 296.000000
TP 5 1152.000000
TP 6 880.000000
TP 7 548.000000
TP 8 940.000000
TP 9 564.000000
TP 10 592.000000
TP 11 1204.000000
TP 12 732.000000
TP 13 424.000000
TP 14 92.000000
TP 15 324.000000
TP 16 700.000000
TP 17 388.000000
TP 18 708.000000
TP 19 216.000000
TP 20 160.000000
TP 21 92.000000
TP 22 1176.000000
TP 23 896.000000
TP 24 780.000000
TP 25 880.000000
TP 26 24.000000
TP 27 1148.000000
TP 28 640.000000
TP 29 808.000000
TP 30 464.000000
TP 31 876.000000
TP 32 204.000000
TP 33 980.000000
TP 34 100.000000
TP 35 624.000000
TP 36 976.000000
TP 37 512.000000
TP 38 136.000000
TP 39 892.000000
TP 40 1192.000000
TP 41 1024.000000
TP 42 1092.000000
TP 43 288.000000
TP 44 868.000000
TP 45 36.000000
TP 46 488.000000
TP 47 152.000000
TP 48 832.000000
TP 49 920.000000
TP 50 920.000000
END

EOF
